28 28
22
3 3 13 25
3 4 0 6
3 5 10 23
3 6 0 0
3 7 25 21
3 8 0 20
3 9 18 0
3 10 0 10
3 11 7 0
3 16 13 9
3 17 7 11
3 21 25 0
3 23 10 0
4 3 3 21
4 4 3 24
4 5 21 23
4 8 3 13
4 13 3 0
4 23 21 0
5 6 16 9
5 9 13 0
5 13 16 15
